data/instances/vrp_files/train_14.vrp
NAME : 14
COMMENT : Generated instance No. 14
TYPE : CVRP
DIMENSION : 21
EDGE_WEIGHT_TYPE : EUC_2D
CAPACITY : 30
NODE_COORD_SECTION
 1 624 377
 2 227 607
 3 379 744
 4 205 787
 5 603 114
 6 414 863
 7 922 465
 8 480 918
 9 587 32
 10 912 248
 11 577 165
 12 33 311
 13 780 277
 14 220 212
 15 515 975
 16 458 557
 17 860 535
 18 184 299
 19 309 397
 20 426 799
 21 349 468
DEMAND_SECTION
1 0
2 8
3 3
4 2
5 1
6 3
7 2
8 2
9 6
10 1
11 2
12 6
13 3
14 4
15 1
16 8
17 7
18 7
19 3
20 10
21 10
DEPOT_SECTION
 1
 -1
EOF